0000000000000000
0000000000000000
0001100000001110
0001110000001110
0000111000001110
0000011000001110
0000011100001110
0000111110111000
0000110111110000
0001110011100000
0111000001100000
0111000001110000
0111000000111000
0111000000011100
0000000000000000
0000000000000000
